p cnf 440 107
-1 161 229 410 -412 0 
-84 -85 391 411 -412 0 
-118 412 0 
-157 413 -412 0 
-158 253 388 414 -412 0 
-159 360 412 0 
-160 -161 1 229 415 -412 0 
-162 416 -412 0 
-163 359 -164 304 417 -412 0 
-165 170 330 372 418 -412 0 
-166 135 136 137 138 139 142 153 215 231 233 234 241 242 251 327 328 329 373 375 376 377 397 398 -167 362 -168 366 400 -169 3 8 11 20 44 49 91 106 145 150 193 214 220 235 238 239 250 303 319 337 343 344 346 386 389 -170 165 330 372 419 -412 0 
-171 310 414 -412 0 
-172 420 -412 0 
-173 2 19 41 42 179 237 305 316 342 347 403 419 -412 0 
-174 413 -412 0 
-175 40 89 187 216 354 411 -412 0 
-175 40 89 187 216 354 421 -412 0 
-176 422 -412 0 
-177 402 423 -412 0 
-1 161 229 424 -412 0 
-175 40 89 187 216 354 425 -412 0 
-178 180 396 426 -412 0 
-179 2 19 41 42 173 237 305 316 342 347 403 419 -412 0 
-180 178 396 -170 165 330 372 427 -412 0 
-228 18 43 200 223 254 413 -412 0 
-228 18 43 200 223 254 414 -412 0 
-14 428 -412 0 
-21 5 412 0 
-251 135 136 137 138 139 142 153 166 215 231 233 234 241 242 327 328 329 373 375 376 377 397 398 424 -412 0 
-303 3 8 11 20 44 49 91 106 145 150 169 193 214 220 235 238 239 250 319 337 343 344 346 386 389 424 -412 0 
-4 17 51 414 -412 0 
-252 6 27 144 184 186 191 199 201 203 307 320 349 429 -412 0 
-4 17 51 413 -412 0 
-4 17 51 424 -412 0 
-304 164 419 -412 0 
-7 12 13 15 16 23 24 25 26 28 29 30 31 32 33 34 35 36 37 38 39 45 46 47 48 50 52 53 54 55 56 57 58 59 60 61 62 63 64 65 66 67 68 69 70 71 72 73 74 75 76 77 78 79 80 81 82 83 86 87 88 90 92 94 95 98 99 100 101 102 103 104 105 107 108 109 110 111 112 113 114 115 116 117 119 120 121 122 123 124 125 126 127 128 129 130 131 132 133 134 140 141 143 147 148 149 151 152 154 155 156 181 182 183 185 188 189 190 192 194 195 196 197 198 202 204 205 206 207 208 210 211 212 213 217 218 219 221 222 224 225 226 227 230 232 236 240 243 244 245 246 247 248 249 255 256 257 258 259 260 261 262 263 264 265 266 267 268 269 270 271 272 273 274 275 276 277 278 279 280 281 282 283 284 285 286 287 288 289 290 291 292 293 294 295 296 297 299 300 301 302 306 308 309 317 318 321 322 323 324 325 326 338 339 340 341 348 350 353 355 356 367 368 369 370 371 374 378 379 380 382 383 384 385 392 399 404 405 430 -412 0 
-7 12 13 15 16 23 24 25 26 28 29 30 31 32 33 34 35 36 37 38 39 45 46 47 48 50 52 53 54 55 56 57 58 59 60 61 62 63 64 65 66 67 68 69 70 71 72 73 74 75 76 77 78 79 80 81 82 83 86 87 88 90 92 94 95 98 99 100 101 102 103 104 105 107 108 109 110 111 112 113 114 115 116 117 119 120 121 122 123 124 125 126 127 128 129 130 131 132 133 134 140 141 143 147 148 149 151 152 154 155 156 181 182 183 185 188 189 190 192 194 195 196 197 198 202 204 205 206 207 208 210 211 212 213 217 218 219 221 222 224 225 226 227 230 232 236 240 243 244 245 246 247 248 249 255 256 257 258 259 260 261 262 263 264 265 266 267 268 269 270 271 272 273 274 275 276 277 278 279 280 281 282 283 284 285 286 287 288 289 290 291 292 293 294 295 296 297 299 300 301 302 306 308 309 317 318 321 322 323 324 325 326 338 339 340 341 348 350 353 355 356 367 368 369 370 371 374 378 379 380 382 383 384 385 392 399 404 405 431 -412 0 
-160 412 0 
-5 21 413 -412 0 
-252 6 27 144 184 186 191 199 201 203 307 320 349 414 -412 0 
-89 40 175 187 216 354 424 -412 0 
-5 21 -1 161 229 424 -412 0 
-201 6 27 144 184 186 191 199 203 252 307 320 349 431 -412 0 
-201 6 27 144 184 186 191 199 203 252 307 320 349 430 -412 0 
-310 171 413 -412 0 
-310 171 414 -412 0 
-311 336 412 0 
-159 360 414 -412 0 
-312 432 -412 0 
-313 413 -412 0 
-314 361 394 401 415 -412 0 
-312 414 -412 0 
-315 333 430 -412 0 
-252 6 27 144 184 186 191 199 201 203 307 320 349 413 -412 0 
-331 424 -412 0 
-332 334 412 0 
-333 315 424 -412 0 
-160 413 -412 0 
-334 332 433 -412 0 
-5 21 424 -412 0 
-160 414 -412 0 
-335 412 0 
-336 311 -229 1 161 430 -412 0 
-332 334 -337 3 8 11 20 44 49 91 106 145 150 169 193 214 220 235 238 239 250 303 319 343 344 346 386 389 424 -412 0 
-332 334 -337 3 8 11 20 44 49 91 106 145 150 169 193 214 220 235 238 239 250 303 319 343 344 346 386 389 431 -412 0 
-332 334 -118 412 0 
-351 393 430 -412 0 
-157 424 -412 0 
-352 406 430 -412 0 
-36 7 12 13 15 16 23 24 25 26 28 29 30 31 32 33 34 35 37 38 39 45 46 47 48 50 52 53 54 55 56 57 58 59 60 61 62 63 64 65 66 67 68 69 70 71 72 73 74 75 76 77 78 79 80 81 82 83 86 87 88 90 92 94 95 98 99 100 101 102 103 104 105 107 108 109 110 111 112 113 114 115 116 117 119 120 121 122 123 124 125 126 127 128 129 130 131 132 133 134 140 141 143 147 148 149 151 152 154 155 156 181 182 183 185 188 189 190 192 194 195 196 197 198 202 204 205 206 207 208 210 211 212 213 217 218 219 221 222 224 225 226 227 230 232 236 240 243 244 245 246 247 248 249 255 256 257 258 259 260 261 262 263 264 265 266 267 268 269 270 271 272 273 274 275 276 277 278 279 280 281 282 283 284 285 286 287 288 289 290 291 292 293 294 295 296 297 299 300 301 302 306 308 309 317 318 321 322 323 324 325 326 338 339 340 341 348 350 353 355 356 367 368 369 370 371 374 378 379 380 382 383 384 385 392 399 404 405 431 -412 0 
-359 163 410 -412 0 
-215 135 136 137 138 139 142 153 166 231 233 234 241 242 251 327 328 329 373 375 376 377 397 398 424 -412 0 
-360 159 430 -412 0 
-361 314 394 401 431 -412 0 
-362 167 430 -412 0 
-172 434 -412 0 
-6 27 144 184 186 191 199 201 203 252 307 320 349 -363 425 -412 0 
-330 165 170 372 -11 3 8 20 44 49 91 106 145 150 169 193 214 220 235 238 239 250 303 319 337 343 344 346 386 389 430 -412 0 
-364 413 -412 0 
-364 414 -412 0 
-365 435 -412 0 
-366 168 400 414 -412 0 
-366 168 400 413 -412 0 
-21 5 430 -412 0 
-23 7 12 13 15 16 24 25 26 28 29 30 31 32 33 34 35 36 37 38 39 45 46 47 48 50 52 53 54 55 56 57 58 59 60 61 62 63 64 65 66 67 68 69 70 71 72 73 74 75 76 77 78 79 80 81 82 83 86 87 88 90 92 94 95 98 99 100 101 102 103 104 105 107 108 109 110 111 112 113 114 115 116 117 119 120 121 122 123 124 125 126 127 128 129 130 131 132 133 134 140 141 143 147 148 149 151 152 154 155 156 181 182 183 185 188 189 190 192 194 195 196 197 198 202 204 205 206 207 208 210 211 212 213 217 218 219 221 222 224 225 226 227 230 232 236 240 243 244 245 246 247 248 249 255 256 257 258 259 260 261 262 263 264 265 266 267 268 269 270 271 272 273 274 275 276 277 278 279 280 281 282 283 284 285 286 287 288 289 290 291 292 293 294 295 296 297 299 300 301 302 306 308 309 317 318 321 322 323 324 325 326 338 339 340 341 348 350 353 355 356 367 368 369 370 371 374 378 379 380 382 383 384 385 392 399 404 405 430 -412 0 
-149 7 12 13 15 16 23 24 25 26 28 29 30 31 32 33 34 35 36 37 38 39 45 46 47 48 50 52 53 54 55 56 57 58 59 60 61 62 63 64 65 66 67 68 69 70 71 72 73 74 75 76 77 78 79 80 81 82 83 86 87 88 90 92 94 95 98 99 100 101 102 103 104 105 107 108 109 110 111 112 113 114 115 116 117 119 120 121 122 123 124 125 126 127 128 129 130 131 132 133 134 140 141 143 147 148 151 152 154 155 156 181 182 183 185 188 189 190 192 194 195 196 197 198 202 204 205 206 207 208 210 211 212 213 217 218 219 221 222 224 225 226 227 230 232 236 240 243 244 245 246 247 248 249 255 256 257 258 259 260 261 262 263 264 265 266 267 268 269 270 271 272 273 274 275 276 277 278 279 280 281 282 283 284 285 286 287 288 289 290 291 292 293 294 295 296 297 299 300 301 302 306 308 309 317 318 321 322 323 324 325 326 338 339 340 341 348 350 353 355 356 367 368 369 370 371 374 378 379 380 382 383 384 385 392 399 404 405 424 -412 0 
-387 -388 158 253 -389 3 8 11 20 44 49 91 106 145 150 169 193 214 220 235 238 239 250 303 319 337 343 344 346 386 -390 -391 85 436 -412 0 
-392 7 12 13 15 16 23 24 25 26 28 29 30 31 32 33 34 35 36 37 38 39 45 46 47 48 50 52 53 54 55 56 57 58 59 60 61 62 63 64 65 66 67 68 69 70 71 72 73 74 75 76 77 78 79 80 81 82 83 86 87 88 90 92 94 95 98 99 100 101 102 103 104 105 107 108 109 110 111 112 113 114 115 116 117 119 120 121 122 123 124 125 126 127 128 129 130 131 132 133 134 140 141 143 147 148 149 151 152 154 155 156 181 182 183 185 188 189 190 192 194 195 196 197 198 202 204 205 206 207 208 210 211 212 213 217 218 219 221 222 224 225 226 227 230 232 236 240 243 244 245 246 247 248 249 255 256 257 258 259 260 261 262 263 264 265 266 267 268 269 270 271 272 273 274 275 276 277 278 279 280 281 282 283 284 285 286 287 288 289 290 291 292 293 294 295 296 297 299 300 301 302 306 308 309 317 318 321 322 323 324 325 326 338 339 340 341 348 350 353 355 356 367 368 369 370 371 374 378 379 380 382 383 384 385 399 404 405 -363 -390 -387 436 -412 0 
-393 351 -394 314 361 401 411 -412 0 
-395 430 -412 0 
-396 178 180 431 -412 0 
-209 412 0 
-400 168 366 431 -412 0 
-401 314 361 394 414 -412 0 
-402 177 413 -412 0 
-336 311 412 0 
-252 6 27 144 184 186 191 199 201 203 307 320 349 425 -412 0 
-403 2 19 41 42 173 179 237 305 316 342 347 419 -412 0 
-175 40 89 187 216 354 437 -412 0 
-14 438 -412 0 
-14 439 -412 0 
-14 440 -412 0 
-337 3 8 11 20 44 49 91 106 145 150 169 193 214 220 235 238 239 250 303 319 343 344 346 386 389 424 -412 0 
-406 352 412 0 
-407 412 0 
-408 414 -412 0 
-409 413 -412 0 
